
Gurobi 10.0.1 (linux64) logging started Sun Nov 26 15:37:22 2023

Set parameter LogFile to value "ArtificialInstance/ExperimentV2/S4T5K3/BaRo/gurobi1.txt"
Gurobi Optimizer version 10.0.1 build v10.0.1rc0 (linux64)

CPU model: AMD EPYC 7H12 64-Core Processor, instruction set [SSE2|AVX|AVX2]
Thread count: 128 physical cores, 128 logical processors, using up to 32 threads

Academic license 656792 - for non-commercial use only - registered to b.___@student.vu.nl
Optimize a model with 6624 rows, 10001 columns and 34884 nonzeros
Model fingerprint: 0x17928bea
Variable types: 1 continuous, 10000 integer (10000 binary)
Coefficient statistics:
  Matrix range     [1e+00, 4e+01]
  Objective range  [1e+00, 2e+01]
  Bounds range     [1e+00, 1e+00]
  RHS range        [1e+00, 1e+00]
Found heuristic solution: objective 871.2120243
Presolve time: 0.05s
Presolved: 6624 rows, 10001 columns, 34884 nonzeros
Variable types: 1 continuous, 10000 integer (10000 binary)

Root relaxation: objective 5.382560e+01, 9945 iterations, 0.53 seconds (0.34 work units)

    Nodes    |    Current Node    |     Objective Bounds      |     Work
 Expl Unexpl |  Obj  Depth IntInf | Incumbent    BestBd   Gap | It/Node Time

     0     0   53.82560    0 1560  871.21202   53.82560  93.8%     -    0s
H    0     0                     538.2083260   53.82560  90.0%     -    0s
H    0     0                     503.8015484   53.82560  89.3%     -    0s
H    0     0                     128.4045415   53.82560  58.1%     -    0s
     0     0   59.90800    0 2295  128.40454   59.90800  53.3%     -    1s
H    0     0                     112.2475227   59.90800  46.6%     -    1s
H    0     0                     109.4757267   59.90800  45.3%     -    2s
H    0     0                     103.8616745   69.47468  33.1%     -    3s
     0     0   69.47468    0 2375  103.86167   69.47468  33.1%     -    3s
     0     0   69.54950    0 2156  103.86167   69.54950  33.0%     -    3s
     0     0   69.57386    0 2140  103.86167   69.57386  33.0%     -    3s
     0     0   69.58738    0 2109  103.86167   69.58738  33.0%     -    3s
     0     0   69.58738    0 2111  103.86167   69.58738  33.0%     -    3s
     0     0   70.29592    0 2158  103.86167   70.29592  32.3%     -    3s
H    0     0                     101.5086354   70.29592  30.7%     -    3s
     0     0   70.38314    0 2184  101.50864   70.38314  30.7%     -    4s
     0     0   70.38369    0 2144  101.50864   70.38369  30.7%     -    4s
     0     0   71.02477    0 2155  101.50864   71.02477  30.0%     -    4s
     0     0   71.12101    0 2164  101.50864   71.12101  29.9%     -    4s
     0     0   71.12828    0 2180  101.50864   71.12828  29.9%     -    5s
     0     0   71.12828    0 2182  101.50864   71.12828  29.9%     -    5s
     0     0   71.58214    0 1981  101.50864   71.58214  29.5%     -    5s
H    0     0                      99.5600181   71.58214  28.1%     -    5s
     0     0   71.68081    0 2177   99.56002   71.68081  28.0%     -    5s
     0     0   71.69159    0 2147   99.56002   71.69159  28.0%     -    5s
     0     0   71.69288    0 2138   99.56002   71.69288  28.0%     -    5s
H    0     0                      90.2616605   71.69288  20.6%     -    5s
     0     0   72.47333    0 2027   90.26166   72.47333  19.7%     -    6s
     0     0   72.54150    0 2061   90.26166   72.54150  19.6%     -    6s
     0     0   72.54150    0 2076   90.26166   72.54150  19.6%     -    6s
     0     0   72.67310    0 2072   90.26166   72.67310  19.5%     -    6s
     0     0   72.67885    0 2111   90.26166   72.67885  19.5%     -    7s
     0     0   72.91623    0 1962   90.26166   72.91623  19.2%     -    7s
     0     0   72.97850    0 2013   90.26166   72.97850  19.1%     -    7s
     0     0   72.98514    0 2027   90.26166   72.98514  19.1%     -    7s
     0     0   72.98843    0 2022   90.26166   72.98843  19.1%     -    7s
     0     0   73.07534    0 1965   90.26166   73.07534  19.0%     -    8s
     0     0   73.17883    0 1995   90.26166   73.17883  18.9%     -    8s
     0     0   73.18009    0 1990   90.26166   73.18009  18.9%     -    8s
     0     0   73.22076    0 2030   90.26166   73.22076  18.9%     -    8s
     0     0   73.22901    0 2020   90.26166   73.22901  18.9%     -    8s
     0     0   73.23297    0 2040   90.26166   73.23297  18.9%     -    8s
     0     0   73.24042    0 2059   90.26166   73.24042  18.9%     -    8s
     0     0   73.24042    0 2070   90.26166   73.24042  18.9%     -    8s
     0     0   73.27023    0 2019   90.26166   73.27023  18.8%     -    9s
     0     0   73.27023    0 1911   90.26166   73.27023  18.8%     -    9s
     0     2   73.27023    0 1909   90.26166   73.27023  18.8%     -   11s
    63    96   79.59250    6 1717   90.26166   75.70372  16.1%  2033   15s
H  101   128                      89.9218970   75.98701  15.5%  1902   15s
H  105   128                      89.5386792   75.98701  15.1%  1892   15s
   503   360   87.06930   13 1452   89.53868   75.98701  15.1%  1193   20s
H  786   486                      89.3565725   76.03345  14.9%  1050   22s
H  807   486                      89.0841454   76.03345  14.6%  1039   22s
  1207   702   88.57907   16 1026   89.08415   76.58996  14.0%   968   25s
  2438  1177   84.66950   16 1652   89.08415   78.65228  11.7%   829   30s
* 3026  1367              42      88.8983033   78.92943  11.2%   792   31s
* 3155  1367              25      88.4000127   78.92943  10.7%   784   31s
* 3309  1401              32      88.2834428   78.92943  10.6%   778   32s
H 3448  1429                      87.5604615   78.92943  9.86%   769   33s
H 3503  1429                      87.1059277   79.20359  9.07%   770   33s
  3762  1435     cutoff   13        87.10593   79.20359  9.07%   765   35s
  4400  1461   85.64059   14 1183   87.10593   81.82787  6.06%   767   44s
  4713  1436     cutoff   17        87.10593   82.50581  5.28%   763   45s
  6142  1252   87.00041   15 1588   87.10593   83.62356  4.00%   732   50s
  7247   743     cutoff   15        87.10593   84.48583  3.01%   714   55s

Cutting planes:
  Gomory: 12
  Zero half: 643
  RLT: 439

Explored 8510 nodes (5572500 simplex iterations) in 56.40 seconds (60.88 work units)
Thread count was 32 (of 128 available processors)

Solution count 10: 87.1059 87.5605 88.2834 ... 90.2617

Optimal solution found (tolerance 1.00e-04)
Best objective 8.710592771568e+01, best bound 8.710592771568e+01, gap 0.0000%
